GLPSOL--GLPK LP/MIP Solver 5.0
Parameter(s) specified in the command line:
 --cpxlp --first inputs/new_no_tr/order/default30_default_input.lp -o solutions/new_no_tr/default30_default_input.lp
Reading problem data from 'inputs/new_no_tr/order/default30_default_input.lp'...
inputs/new_no_tr/order/default30_default_input.lp:4507: warning: lower bound of variable 'm_1_1' redefined
inputs/new_no_tr/order/default30_default_input.lp:4507: warning: upper bound of variable 'm_1_1' redefined
4329 rows, 1831 columns, 12785 non-zeros
1831 integer variables, 1660 of which are binary
6307 lines were read
GLPK Integer Optimizer 5.0
4329 rows, 1831 columns, 12785 non-zeros
1831 integer variables, 1660 of which are binary
Preprocessing...
30 hidden packing inequaliti(es) were detected
239 hidden covering inequaliti(es) were detected
790 constraint coefficient(s) were reduced
3984 rows, 1597 columns, 11559 non-zeros
1597 integer variables, 1566 of which are binary
Scaling...
 A: min|aij| =  1.000e+00  max|aij| =  1.024e+04  ratio =  1.024e+04
GM: min|aij| =  4.273e-01  max|aij| =  2.340e+00  ratio =  5.477e+00
EQ: min|aij| =  1.826e-01  max|aij| =  1.000e+00  ratio =  5.477e+00
2N: min|aij| =  1.250e-01  max|aij| =  1.750e+00  ratio =  1.400e+01
Constructing initial basis...
Size of triangular part is 3589
Solving LP relaxation...
GLPK Simplex Optimizer 5.0
3984 rows, 1597 columns, 11559 non-zeros
      0: obj =   2.560000000e+04 inf =   1.802e+02 (169)
   1283: obj =   3.384258329e+04 inf =   1.091e-13 (0) 12
*  1496: obj =   2.560000000e+04 inf =   1.526e-14 (0) 2
OPTIMAL LP SOLUTION FOUND
Integer optimization begins...
Long-step dual simplex will be used
+  1496: mip =     not found yet >=              -inf        (1; 0)
+ 20215: mip =     not found yet >=   2.560000000e+04        (169; 128)
+ 40309: mip =     not found yet >=   2.560000000e+04        (247; 197)
+ 59120: mip =     not found yet >=   2.560000000e+04        (336; 304)
+ 76376: mip =     not found yet >=   2.560000000e+04        (505; 463)
+ 96439: mip =     not found yet >=   2.560000000e+04        (594; 573)
+114848: mip =     not found yet >=   2.560000000e+04        (684; 665)
+133112: mip =     not found yet >=   2.713600000e+04        (752; 769)
+150626: mip =     not found yet >=   2.713600000e+04        (1048; 942)
+168552: mip =     not found yet >=   2.713600000e+04        (1106; 997)
+179438: >>>>>   2.867200000e+04 >=   2.713600000e+04   5.4% (1253; 1104)
+198187: mip =   2.867200000e+04 >=   2.713600000e+04   5.4% (1118; 2720)
+216677: mip =   2.867200000e+04 >=   2.713600000e+04   5.4% (1151; 3996)
Time used: 60.0 secs.  Memory used: 14.9 Mb.
+234099: mip =   2.867200000e+04 >=   2.713600000e+04   5.4% (1240; 5157)
+251137: mip =   2.867200000e+04 >=   2.713600000e+04   5.4% (1282; 6399)
+269534: mip =   2.867200000e+04 >=   2.713600000e+04   5.4% (1311; 7641)
+284306: mip =   2.867200000e+04 >=   2.713600000e+04   5.4% (1343; 9002)
+302124: mip =   2.867200000e+04 >=   2.713600000e+04   5.4% (1370; 10355)
+319688: mip =   2.867200000e+04 >=   2.713600000e+04   5.4% (1409; 11655)
+338841: mip =   2.867200000e+04 >=   2.713600000e+04   5.4% (1496; 12711)
+356566: mip =   2.867200000e+04 >=   2.713600000e+04   5.4% (1546; 13875)
+374743: mip =   2.867200000e+04 >=   2.713600000e+04   5.4% (1607; 14966)
+390328: mip =   2.867200000e+04 >=   2.713600000e+04   5.4% (1624; 16398)
+407162: mip =   2.867200000e+04 >=   2.713600000e+04   5.4% (1655; 17708)
+424611: mip =   2.867200000e+04 >=   2.713600000e+04   5.4% (1695; 19066)
Time used: 120.0 secs.  Memory used: 20.6 Mb.
+442708: mip =   2.867200000e+04 >=   2.713600000e+04   5.4% (1731; 20361)
+461143: mip =   2.867200000e+04 >=   2.713600000e+04   5.4% (1761; 21547)
+479018: mip =   2.867200000e+04 >=   2.713600000e+04   5.4% (1797; 22842)
+495596: mip =   2.867200000e+04 >=   2.713600000e+04   5.4% (1832; 24102)
+513086: mip =   2.867200000e+04 >=   2.713600000e+04   5.4% (1871; 25345)
+531498: mip =   2.867200000e+04 >=   2.713600000e+04   5.4% (1944; 26392)
+549592: mip =   2.867200000e+04 >=   2.713600000e+04   5.4% (1990; 27543)
+566903: mip =   2.867200000e+04 >=   2.713600000e+04   5.4% (2029; 28809)
+585075: mip =   2.867200000e+04 >=   2.713600000e+04   5.4% (2108; 29885)
+603579: mip =   2.867200000e+04 >=   2.713600000e+04   5.4% (2163; 30960)
+619080: mip =   2.867200000e+04 >=   2.713600000e+04   5.4% (2183; 32208)
+636381: mip =   2.867200000e+04 >=   2.713600000e+04   5.4% (2273; 33270)
Time used: 180.0 secs.  Memory used: 26.8 Mb.
+654219: mip =   2.867200000e+04 >=   2.713600000e+04   5.4% (2317; 34449)
+670871: mip =   2.867200000e+04 >=   2.713600000e+04   5.4% (2337; 35766)
+687942: mip =   2.867200000e+04 >=   2.713600000e+04   5.4% (2378; 37015)
+705849: mip =   2.867200000e+04 >=   2.713600000e+04   5.4% (2423; 38306)
+725093: mip =   2.867200000e+04 >=   2.713600000e+04   5.4% (2506; 39379)
+742999: mip =   2.867200000e+04 >=   2.713600000e+04   5.4% (2574; 40484)
+759435: mip =   2.867200000e+04 >=   2.713600000e+04   5.4% (2598; 41637)
+776542: mip =   2.867200000e+04 >=   2.713600000e+04   5.4% (2663; 42726)
+793718: mip =   2.867200000e+04 >=   2.713600000e+04   5.4% (2719; 43879)
+811288: mip =   2.867200000e+04 >=   2.713600000e+04   5.4% (2779; 45073)
+829176: mip =   2.867200000e+04 >=   2.713600000e+04   5.4% (2835; 46259)
+846402: mip =   2.867200000e+04 >=   2.713600000e+04   5.4% (2901; 47449)
Time used: 240.0 secs.  Memory used: 33.7 Mb.
+865362: mip =   2.867200000e+04 >=   2.713600000e+04   5.4% (2961; 48456)
+883026: mip =   2.867200000e+04 >=   2.713600000e+04   5.4% (3045; 49515)
+901574: mip =   2.867200000e+04 >=   2.713600000e+04   5.4% (3177; 50372)
+920069: mip =   2.867200000e+04 >=   2.713600000e+04   5.4% (3300; 51190)
+938970: mip =   2.867200000e+04 >=   2.713600000e+04   5.4% (3364; 52064)
+957298: mip =   2.867200000e+04 >=   2.713600000e+04   5.4% (3493; 52884)
+977233: mip =   2.867200000e+04 >=   2.713600000e+04   5.4% (3551; 53765)
+996034: mip =   2.867200000e+04 >=   2.713600000e+04   5.4% (3703; 54525)
+1015347: mip =   2.867200000e+04 >=   2.713600000e+04   5.4% (3797; 55339)
+1033963: mip =   2.867200000e+04 >=   2.713600000e+04   5.4% (3888; 56261)
+1051622: mip =   2.867200000e+04 >=   2.713600000e+04   5.4% (3943; 57289)
+1070144: mip =   2.867200000e+04 >=   2.713600000e+04   5.4% (4059; 58038)
Time used: 300.0 secs.  Memory used: 44.3 Mb.
+1088368: mip =   2.867200000e+04 >=   2.713600000e+04   5.4% (4147; 58821)
+1105400: mip =   2.867200000e+04 >=   2.713600000e+04   5.4% (4222; 59609)
+1123394: mip =   2.867200000e+04 >=   2.713600000e+04   5.4% (4372; 60387)
+1141892: mip =   2.867200000e+04 >=   2.713600000e+04   5.4% (4414; 61388)
+1161578: mip =   2.867200000e+04 >=   2.713600000e+04   5.4% (4502; 62189)
+1180639: mip =   2.867200000e+04 >=   2.713600000e+04   5.4% (4622; 62960)
+1198767: mip =   2.867200000e+04 >=   2.713600000e+04   5.4% (4663; 63923)
+1215782: mip =   2.867200000e+04 >=   2.713600000e+04   5.4% (4698; 64995)
+1231252: mip =   2.867200000e+04 >=   2.713600000e+04   5.4% (4737; 66119)
+1247457: mip =   2.867200000e+04 >=   2.713600000e+04   5.4% (4780; 67223)
+1263363: mip =   2.867200000e+04 >=   2.713600000e+04   5.4% (4858; 68219)
+1280249: mip =   2.867200000e+04 >=   2.713600000e+04   5.4% (4908; 69155)
Time used: 360.0 secs.  Memory used: 53.2 Mb.
+1295940: mip =   2.867200000e+04 >=   2.713600000e+04   5.4% (5076; 69868)
+1310836: mip =   2.867200000e+04 >=   2.713600000e+04   5.4% (5091; 70879)
+1325698: mip =   2.867200000e+04 >=   2.713600000e+04   5.4% (5145; 71841)
+1339186: mip =   2.867200000e+04 >=   2.713600000e+04   5.4% (5226; 72803)
+1353382: mip =   2.867200000e+04 >=   2.713600000e+04   5.4% (5314; 73709)
+1367632: mip =   2.867200000e+04 >=   2.713600000e+04   5.4% (5350; 74675)
+1380828: mip =   2.867200000e+04 >=   2.713600000e+04   5.4% (5388; 75701)
+1394831: mip =   2.867200000e+04 >=   2.713600000e+04   5.4% (5447; 76661)
+1408799: mip =   2.867200000e+04 >=   2.713600000e+04   5.4% (5475; 77666)
+1422047: mip =   2.867200000e+04 >=   2.713600000e+04   5.4% (5497; 78673)
+1436904: mip =   2.867200000e+04 >=   2.713600000e+04   5.4% (5536; 79724)
+1452428: mip =   2.867200000e+04 >=   2.713600000e+04   5.4% (5568; 80820)
Time used: 420.0 secs.  Memory used: 61.1 Mb.
+1466369: mip =   2.867200000e+04 >=   2.713600000e+04   5.4% (5604; 81875)
+1479654: mip =   2.867200000e+04 >=   2.713600000e+04   5.4% (5631; 82887)
+1493758: mip =   2.867200000e+04 >=   2.713600000e+04   5.4% (5661; 83875)
+1507826: mip =   2.867200000e+04 >=   2.713600000e+04   5.4% (5706; 84811)
+1521155: mip =   2.867200000e+04 >=   2.713600000e+04   5.4% (5721; 85864)
+1536685: mip =   2.867200000e+04 >=   2.713600000e+04   5.4% (5831; 86638)
+1552336: mip =   2.867200000e+04 >=   2.713600000e+04   5.4% (5947; 87419)
+1566579: mip =   2.867200000e+04 >=   2.713600000e+04   5.4% (6038; 88317)
+1581528: mip =   2.867200000e+04 >=   2.713600000e+04   5.4% (6075; 89284)
+1595273: mip =   2.867200000e+04 >=   2.713600000e+04   5.4% (6085; 90314)
+1608318: mip =   2.867200000e+04 >=   2.713600000e+04   5.4% (6121; 91342)
+1623734: mip =   2.867200000e+04 >=   2.713600000e+04   5.4% (6166; 92356)
Time used: 480.0 secs.  Memory used: 68.0 Mb.
+1638908: mip =   2.867200000e+04 >=   2.713600000e+04   5.4% (6186; 93426)
+1654498: mip =   2.867200000e+04 >=   2.713600000e+04   5.4% (6240; 94402)
+1669048: mip =   2.867200000e+04 >=   2.713600000e+04   5.4% (6354; 95151)
+1682997: mip =   2.867200000e+04 >=   2.713600000e+04   5.4% (6406; 96047)
+1696037: mip =   2.867200000e+04 >=   2.713600000e+04   5.4% (6454; 96982)
+1709667: mip =   2.867200000e+04 >=   2.713600000e+04   5.4% (6543; 97790)
+1722731: mip =   2.867200000e+04 >=   2.713600000e+04   5.4% (6613; 98672)
+1738043: mip =   2.867200000e+04 >=   2.713600000e+04   5.4% (6703; 99397)
+1751059: mip =   2.867200000e+04 >=   2.713600000e+04   5.4% (6753; 100322)
+1765611: mip =   2.867200000e+04 >=   2.713600000e+04   5.4% (6856; 101124)
+1780855: mip =   2.867200000e+04 >=   2.713600000e+04   5.4% (6928; 101880)
+1797210: mip =   2.867200000e+04 >=   2.713600000e+04   5.4% (6937; 102871)
Time used: 540.0 secs.  Memory used: 75.5 Mb.
+1810848: mip =   2.867200000e+04 >=   2.713600000e+04   5.4% (6957; 103876)
+1823771: mip =   2.867200000e+04 >=   2.713600000e+04   5.4% (6995; 104810)
+1835558: mip =   2.867200000e+04 >=   2.713600000e+04   5.4% (7064; 105706)
+1849969: mip =   2.867200000e+04 >=   2.713600000e+04   5.4% (7109; 106605)
+1863940: mip =   2.867200000e+04 >=   2.713600000e+04   5.4% (7166; 107537)
+1878685: mip =   2.867200000e+04 >=   2.713600000e+04   5.4% (7193; 108438)
+1894042: mip =   2.867200000e+04 >=   2.713600000e+04   5.4% (7271; 109232)
+1908926: mip =   2.867200000e+04 >=   2.713600000e+04   5.4% (7315; 110117)
+1922279: mip =   2.867200000e+04 >=   2.713600000e+04   5.4% (7365; 111029)
+1938336: mip =   2.867200000e+04 >=   2.713600000e+04   5.4% (7436; 111803)
+1952287: mip =   2.867200000e+04 >=   2.713600000e+04   5.4% (7456; 112714)
+1965687: mip =   2.867200000e+04 >=   2.713600000e+04   5.4% (7478; 113721)
Time used: 600.0 secs.  Memory used: 81.1 Mb.
+1977817: mip =   2.867200000e+04 >=   2.713600000e+04   5.4% (7512; 114727)
+1991160: mip =   2.867200000e+04 >=   2.713600000e+04   5.4% (7551; 115598)
+2004219: mip =   2.867200000e+04 >=   2.713600000e+04   5.4% (7575; 116595)
+2017334: mip =   2.867200000e+04 >=   2.713600000e+04   5.4% (7614; 117530)
+2030202: mip =   2.867200000e+04 >=   2.713600000e+04   5.4% (7661; 118491)
+2042503: mip =   2.867200000e+04 >=   2.713600000e+04   5.4% (7679; 119492)
+2055845: mip =   2.867200000e+04 >=   2.713600000e+04   5.4% (7753; 120398)
+2068438: mip =   2.867200000e+04 >=   2.713600000e+04   5.4% (7826; 121289)
+2081419: mip =   2.867200000e+04 >=   2.713600000e+04   5.4% (7891; 122175)
+2096519: mip =   2.867200000e+04 >=   2.713600000e+04   5.4% (7955; 122977)
+2112585: mip =   2.867200000e+04 >=   2.713600000e+04   5.4% (8034; 123676)
+2126050: mip =   2.867200000e+04 >=   2.713600000e+04   5.4% (8075; 124579)
Time used: 660.0 secs.  Memory used: 87.7 Mb.
+2139296: mip =   2.867200000e+04 >=   2.713600000e+04   5.4% (8162; 125374)
+2152136: mip =   2.867200000e+04 >=   2.713600000e+04   5.4% (8227; 126242)
+2166766: mip =   2.867200000e+04 >=   2.713600000e+04   5.4% (8252; 127079)
+2184121: mip =   2.867200000e+04 >=   2.713600000e+04   5.4% (8341; 127663)
+2197603: mip =   2.867200000e+04 >=   2.713600000e+04   5.4% (8402; 128473)
+2209405: mip =   2.867200000e+04 >=   2.713600000e+04   5.4% (8407; 129399)
+2222792: mip =   2.867200000e+04 >=   2.713600000e+04   5.4% (8501; 130129)
+2236704: mip =   2.867200000e+04 >=   2.713600000e+04   5.4% (8539; 130991)
+2251071: mip =   2.867200000e+04 >=   2.713600000e+04   5.4% (8576; 131888)
+2265372: mip =   2.867200000e+04 >=   2.713600000e+04   5.4% (8591; 132832)
+2278386: mip =   2.867200000e+04 >=   2.713600000e+04   5.4% (8664; 133800)
+2292647: mip =   2.867200000e+04 >=   2.713600000e+04   5.4% (8719; 134710)
Time used: 720.0 secs.  Memory used: 95.5 Mb.
+2309531: mip =   2.867200000e+04 >=   2.713600000e+04   5.4% (8780; 135566)
+2324340: mip =   2.867200000e+04 >=   2.713600000e+04   5.4% (8818; 136614)
+2339904: mip =   2.867200000e+04 >=   2.713600000e+04   5.4% (8866; 137494)
+2353571: mip =   2.867200000e+04 >=   2.713600000e+04   5.4% (8919; 138388)
+2367108: mip =   2.867200000e+04 >=   2.713600000e+04   5.4% (8951; 139354)
+2379898: mip =   2.867200000e+04 >=   2.713600000e+04   5.4% (8993; 140337)
+2392245: mip =   2.867200000e+04 >=   2.713600000e+04   5.4% (9009; 141430)
+2404189: mip =   2.867200000e+04 >=   2.713600000e+04   5.4% (9058; 142429)
+2417503: mip =   2.867200000e+04 >=   2.713600000e+04   5.4% (9140; 143303)
+2432960: mip =   2.867200000e+04 >=   2.713600000e+04   5.4% (9195; 144093)
+2446769: mip =   2.867200000e+04 >=   2.713600000e+04   5.4% (9297; 144943)
+2461895: mip =   2.867200000e+04 >=   2.713600000e+04   5.4% (9352; 145696)
Time used: 780.0 secs.  Memory used: 102.4 Mb.
+2475898: mip =   2.867200000e+04 >=   2.713600000e+04   5.4% (9425; 146568)
+2490093: mip =   2.867200000e+04 >=   2.713600000e+04   5.4% (9458; 147441)
+2505197: mip =   2.867200000e+04 >=   2.713600000e+04   5.4% (9575; 148153)
+2519641: mip =   2.867200000e+04 >=   2.713600000e+04   5.4% (9577; 149125)
+2534662: mip =   2.867200000e+04 >=   2.713600000e+04   5.4% (9617; 150031)
+2549176: mip =   2.867200000e+04 >=   2.713600000e+04   5.4% (9647; 150985)
+2563125: mip =   2.867200000e+04 >=   2.713600000e+04   5.4% (9738; 151792)
+2576790: mip =   2.867200000e+04 >=   2.713600000e+04   5.4% (9762; 152648)
+2590834: mip =   2.867200000e+04 >=   2.713600000e+04   5.4% (9833; 153422)
+2604377: mip =   2.867200000e+04 >=   2.713600000e+04   5.4% (9887; 154273)
+2618880: mip =   2.867200000e+04 >=   2.713600000e+04   5.4% (9957; 155034)
+2631270: mip =   2.867200000e+04 >=   2.713600000e+04   5.4% (9974; 155944)
Time used: 840.0 secs.  Memory used: 109.4 Mb.
+2644977: mip =   2.867200000e+04 >=   2.713600000e+04   5.4% (10087; 156697)
+2662357: mip =   2.867200000e+04 >=   2.713600000e+04   5.4% (10185; 157324)
+2676344: mip =   2.867200000e+04 >=   2.713600000e+04   5.4% (10196; 158175)
+2689003: mip =   2.867200000e+04 >=   2.713600000e+04   5.4% (10217; 159107)
+2704213: mip =   2.867200000e+04 >=   2.713600000e+04   5.4% (10288; 159876)
+2719998: mip =   2.867200000e+04 >=   2.713600000e+04   5.4% (10370; 160615)
+2735397: mip =   2.867200000e+04 >=   2.713600000e+04   5.4% (10415; 161415)
+2751730: mip =   2.867200000e+04 >=   2.713600000e+04   5.4% (10480; 162139)
+2766429: mip =   2.867200000e+04 >=   2.713600000e+04   5.4% (10529; 162931)
+2781386: mip =   2.867200000e+04 >=   2.713600000e+04   5.4% (10577; 163719)
+2797633: mip =   2.867200000e+04 >=   2.713600000e+04   5.4% (10645; 164434)
+2810536: mip =   2.867200000e+04 >=   2.713600000e+04   5.4% (10687; 165279)
Time used: 900.0 secs.  Memory used: 116.4 Mb.
+2823886: mip =   2.867200000e+04 >=   2.713600000e+04   5.4% (10738; 166090)
+2837192: mip =   2.867200000e+04 >=   2.713600000e+04   5.4% (10777; 166939)
+2850053: mip =   2.867200000e+04 >=   2.713600000e+04   5.4% (10799; 167866)
+2864568: mip =   2.867200000e+04 >=   2.713600000e+04   5.4% (10855; 168664)
+2878110: mip =   2.867200000e+04 >=   2.713600000e+04   5.4% (10915; 169541)
+2891932: mip =   2.867200000e+04 >=   2.713600000e+04   5.4% (10955; 170432)
+2905652: mip =   2.867200000e+04 >=   2.713600000e+04   5.4% (10991; 171309)
+2920131: mip =   2.867200000e+04 >=   2.713600000e+04   5.4% (11054; 172081)
+2935185: mip =   2.867200000e+04 >=   2.713600000e+04   5.4% (11109; 172839)
+2948406: mip =   2.867200000e+04 >=   2.713600000e+04   5.4% (11184; 173672)
+2964069: mip =   2.867200000e+04 >=   2.713600000e+04   5.4% (11255; 174438)
+2976594: mip =   2.867200000e+04 >=   2.713600000e+04   5.4% (11293; 175392)
Time used: 960.0 secs.  Memory used: 123.0 Mb.
+2989250: mip =   2.867200000e+04 >=   2.713600000e+04   5.4% (11324; 176309)
+3001720: mip =   2.867200000e+04 >=   2.713600000e+04   5.4% (11364; 177166)
+3015020: mip =   2.867200000e+04 >=   2.713600000e+04   5.4% (11388; 178006)
+3028067: mip =   2.867200000e+04 >=   2.713600000e+04   5.4% (11418; 178929)
+3041343: mip =   2.867200000e+04 >=   2.713600000e+04   5.4% (11459; 179790)
+3053699: mip =   2.867200000e+04 >=   2.713600000e+04   5.4% (11488; 180720)
+3066920: mip =   2.867200000e+04 >=   2.713600000e+04   5.4% (11514; 181609)
+3081113: mip =   2.867200000e+04 >=   2.713600000e+04   5.4% (11589; 182410)
+3095590: mip =   2.867200000e+04 >=   2.713600000e+04   5.4% (11729; 183033)
+3107596: mip =   2.867200000e+04 >=   2.713600000e+04   5.4% (11738; 183918)
+3119231: mip =   2.867200000e+04 >=   2.713600000e+04   5.4% (11760; 184820)
+3132343: mip =   2.867200000e+04 >=   2.713600000e+04   5.4% (11831; 185553)
Time used: 1020.0 secs.  Memory used: 128.9 Mb.
+3144718: mip =   2.867200000e+04 >=   2.713600000e+04   5.4% (11842; 186440)
+3157255: mip =   2.867200000e+04 >=   2.713600000e+04   5.4% (11899; 187306)
+3169929: mip =   2.867200000e+04 >=   2.713600000e+04   5.4% (11931; 188216)
+3181841: mip =   2.867200000e+04 >=   2.713600000e+04   5.4% (11963; 189051)
+3194315: mip =   2.867200000e+04 >=   2.713600000e+04   5.4% (12020; 189849)
+3206118: mip =   2.867200000e+04 >=   2.713600000e+04   5.4% (12046; 190775)
+3218821: mip =   2.867200000e+04 >=   2.713600000e+04   5.4% (12152; 191531)
+3233453: mip =   2.867200000e+04 >=   2.713600000e+04   5.4% (12200; 192212)
+3245383: mip =   2.867200000e+04 >=   2.713600000e+04   5.4% (12263; 193034)
+3257349: mip =   2.867200000e+04 >=   2.713600000e+04   5.4% (12288; 193872)
+3269163: mip =   2.867200000e+04 >=   2.713600000e+04   5.4% (12332; 194756)
+3280936: mip =   2.867200000e+04 >=   2.713600000e+04   5.4% (12396; 195613)
Time used: 1080.0 secs.  Memory used: 135.3 Mb.
+3294928: mip =   2.867200000e+04 >=   2.713600000e+04   5.4% (12436; 196365)
+3309120: mip =   2.867200000e+04 >=   2.713600000e+04   5.4% (12536; 197025)
+3321892: mip =   2.867200000e+04 >=   2.713600000e+04   5.4% (12572; 197779)
+3333993: mip =   2.867200000e+04 >=   2.713600000e+04   5.4% (12619; 198561)
+3346909: mip =   2.867200000e+04 >=   2.713600000e+04   5.4% (12645; 199423)
+3361146: mip =   2.867200000e+04 >=   2.713600000e+04   5.4% (12719; 200099)
+3372869: mip =   2.867200000e+04 >=   2.713600000e+04   5.4% (12744; 200962)
+3386773: mip =   2.867200000e+04 >=   2.713600000e+04   5.4% (12777; 201710)
+3399238: mip =   2.867200000e+04 >=   2.713600000e+04   5.4% (12823; 202491)
+3411264: mip =   2.867200000e+04 >=   2.713600000e+04   5.4% (12860; 203308)
+3424339: mip =   2.867200000e+04 >=   2.713600000e+04   5.4% (12890; 204093)
+3437004: mip =   2.867200000e+04 >=   2.713600000e+04   5.4% (12963; 204855)
Time used: 1140.0 secs.  Memory used: 141.7 Mb.
+3449121: mip =   2.867200000e+04 >=   2.713600000e+04   5.4% (13053; 205580)
+3460557: mip =   2.867200000e+04 >=   2.713600000e+04   5.4% (13104; 206414)
+3472368: mip =   2.867200000e+04 >=   2.713600000e+04   5.4% (13186; 207139)
+3484219: mip =   2.867200000e+04 >=   2.713600000e+04   5.4% (13225; 207930)
+3498155: mip =   2.867200000e+04 >=   2.713600000e+04   5.4% (13241; 208646)
+3511488: mip =   2.867200000e+04 >=   2.713600000e+04   5.4% (13327; 209286)
+3523299: mip =   2.867200000e+04 >=   2.713600000e+04   5.4% (13385; 210036)
+3536221: mip =   2.867200000e+04 >=   2.713600000e+04   5.4% (13398; 210791)
+3548800: mip =   2.867200000e+04 >=   2.713600000e+04   5.4% (13440; 211543)
+3559575: mip =   2.867200000e+04 >=   2.713600000e+04   5.4% (13480; 212360)
+3570674: mip =   2.867200000e+04 >=   2.713600000e+04   5.4% (13530; 213109)
+3584404: mip =   2.867200000e+04 >=   2.713600000e+04   5.4% (13568; 213792)
Time used: 1200.0 secs.  Memory used: 148.5 Mb.
+3599282: mip =   2.867200000e+04 >=   2.713600000e+04   5.4% (13658; 214443)
+3613047: mip =   2.867200000e+04 >=   2.713600000e+04   5.4% (13689; 215239)
+3627792: mip =   2.867200000e+04 >=   2.713600000e+04   5.4% (13745; 215902)
+3640618: mip =   2.867200000e+04 >=   2.713600000e+04   5.4% (13849; 216583)
+3652748: mip =   2.867200000e+04 >=   2.713600000e+04   5.4% (13936; 217225)
+3664062: mip =   2.867200000e+04 >=   2.713600000e+04   5.4% (13984; 217977)
+3674814: mip =   2.867200000e+04 >=   2.713600000e+04   5.4% (14005; 218751)
+3685844: mip =   2.867200000e+04 >=   2.713600000e+04   5.4% (14023; 219620)
+3698318: mip =   2.867200000e+04 >=   2.713600000e+04   5.4% (14123; 220299)
+3709467: mip =   2.867200000e+04 >=   2.713600000e+04   5.4% (14142; 221116)
+3721933: mip =   2.867200000e+04 >=   2.713600000e+04   5.4% (14183; 221855)
+3733110: mip =   2.867200000e+04 >=   2.713600000e+04   5.4% (14208; 222619)
Time used: 1260.1 secs.  Memory used: 154.9 Mb.
+3746298: mip =   2.867200000e+04 >=   2.713600000e+04   5.4% (14338; 223184)
+3758173: mip =   2.867200000e+04 >=   2.713600000e+04   5.4% (14358; 223918)
+3769944: mip =   2.867200000e+04 >=   2.713600000e+04   5.4% (14364; 224719)
+3781109: mip =   2.867200000e+04 >=   2.713600000e+04   5.4% (14408; 225449)
+3793031: mip =   2.867200000e+04 >=   2.713600000e+04   5.4% (14478; 226115)
+3804850: mip =   2.867200000e+04 >=   2.713600000e+04   5.4% (14473; 226901)
+3817421: mip =   2.867200000e+04 >=   2.713600000e+04   5.4% (14514; 227679)
+3828636: mip =   2.867200000e+04 >=   2.713600000e+04   5.4% (14545; 228468)
+3840330: mip =   2.867200000e+04 >=   2.713600000e+04   5.4% (14622; 229155)
+3854672: mip =   2.867200000e+04 >=   2.713600000e+04   5.4% (14719; 229718)
+3867058: mip =   2.867200000e+04 >=   2.713600000e+04   5.4% (14782; 230407)
+3878970: mip =   2.867200000e+04 >=   2.713600000e+04   5.4% (14833; 231174)
Time used: 1320.1 secs.  Memory used: 161.4 Mb.
+3891127: mip =   2.867200000e+04 >=   2.713600000e+04   5.4% (14861; 231921)
+3901882: mip =   2.867200000e+04 >=   2.713600000e+04   5.4% (14888; 232700)
+3913893: mip =   2.867200000e+04 >=   2.713600000e+04   5.4% (14919; 233399)
+3925730: mip =   2.867200000e+04 >=   2.713600000e+04   5.4% (14952; 234201)
+3940801: mip =   2.867200000e+04 >=   2.713600000e+04   5.4% (15007; 234765)
+3954735: mip =   2.867200000e+04 >=   2.713600000e+04   5.4% (15075; 235388)
+3966080: mip =   2.867200000e+04 >=   2.713600000e+04   5.4% (15104; 236112)
+3977595: mip =   2.867200000e+04 >=   2.713600000e+04   5.4% (15146; 236831)
+3989318: mip =   2.867200000e+04 >=   2.713600000e+04   5.4% (15159; 237668)
+4000803: mip =   2.867200000e+04 >=   2.713600000e+04   5.4% (15189; 238482)
+4012808: mip =   2.867200000e+04 >=   2.713600000e+04   5.4% (15218; 239247)
+4024098: mip =   2.867200000e+04 >=   2.713600000e+04   5.4% (15251; 240070)
Time used: 1380.1 secs.  Memory used: 166.4 Mb.
+4035709: mip =   2.867200000e+04 >=   2.713600000e+04   5.4% (15280; 240809)
+4046540: mip =   2.867200000e+04 >=   2.713600000e+04   5.4% (15314; 241531)
+4057415: mip =   2.867200000e+04 >=   2.713600000e+04   5.4% (15375; 242233)
+4068220: mip =   2.867200000e+04 >=   2.713600000e+04   5.4% (15423; 242984)
+4079022: mip =   2.867200000e+04 >=   2.713600000e+04   5.4% (15445; 243758)
+4090393: mip =   2.867200000e+04 >=   2.713600000e+04   5.4% (15512; 244470)
+4100004: mip =   2.867200000e+04 >=   2.713600000e+04   5.4% (15498; 245295)
+4109777: mip =   2.867200000e+04 >=   2.713600000e+04   5.4% (15525; 246074)
+4120349: mip =   2.867200000e+04 >=   2.713600000e+04   5.4% (15562; 246838)
+4130771: mip =   2.867200000e+04 >=   2.713600000e+04   5.4% (15586; 247615)
+4141658: mip =   2.867200000e+04 >=   2.713600000e+04   5.4% (15599; 248392)
+4152193: mip =   2.867200000e+04 >=   2.713600000e+04   5.4% (15633; 249125)
Time used: 1440.1 secs.  Memory used: 172.0 Mb.
+4162713: mip =   2.867200000e+04 >=   2.713600000e+04   5.4% (15671; 249869)
+4173349: mip =   2.867200000e+04 >=   2.713600000e+04   5.4% (15742; 250555)
+4182869: mip =   2.867200000e+04 >=   2.713600000e+04   5.4% (15754; 251333)
+4192978: mip =   2.867200000e+04 >=   2.713600000e+04   5.4% (15775; 252146)
+4203576: mip =   2.867200000e+04 >=   2.713600000e+04   5.4% (15802; 252892)
+4213924: mip =   2.867200000e+04 >=   2.713600000e+04   5.4% (15828; 253636)
+4224366: mip =   2.867200000e+04 >=   2.713600000e+04   5.4% (15844; 254399)
+4234941: mip =   2.867200000e+04 >=   2.713600000e+04   5.4% (15862; 255123)
+4245081: mip =   2.867200000e+04 >=   2.713600000e+04   5.4% (15909; 255861)
+4256394: mip =   2.867200000e+04 >=   2.713600000e+04   5.4% (15948; 256563)
+4266912: mip =   2.867200000e+04 >=   2.713600000e+04   5.4% (15985; 257288)
+4277053: mip =   2.867200000e+04 >=   2.713600000e+04   5.4% (16021; 258032)
Time used: 1500.1 secs.  Memory used: 177.7 Mb.
+4287837: mip =   2.867200000e+04 >=   2.713600000e+04   5.4% (16073; 258743)
+4297863: mip =   2.867200000e+04 >=   2.713600000e+04   5.4% (16111; 259516)
+4308253: mip =   2.867200000e+04 >=   2.713600000e+04   5.4% (16153; 260268)
+4318604: mip =   2.867200000e+04 >=   2.713600000e+04   5.4% (16176; 261017)
+4329529: mip =   2.867200000e+04 >=   2.713600000e+04   5.4% (16215; 261731)
+4339518: mip =   2.867200000e+04 >=   2.713600000e+04   5.4% (16213; 262513)
+4350354: mip =   2.867200000e+04 >=   2.713600000e+04   5.4% (16242; 263199)
+4359942: mip =   2.867200000e+04 >=   2.713600000e+04   5.4% (16293; 263925)
+4370267: mip =   2.867200000e+04 >=   2.713600000e+04   5.4% (16349; 264645)
+4380340: mip =   2.867200000e+04 >=   2.713600000e+04   5.4% (16389; 265372)
+4389501: mip =   2.867200000e+04 >=   2.713600000e+04   5.4% (16407; 266120)
+4400492: mip =   2.867200000e+04 >=   2.713600000e+04   5.4% (16425; 266888)
Time used: 1560.1 secs.  Memory used: 184.2 Mb.
+4410492: mip =   2.867200000e+04 >=   2.713600000e+04   5.4% (16454; 267608)
+4422322: mip =   2.867200000e+04 >=   2.713600000e+04   5.4% (16500; 268277)
+4433000: mip =   2.867200000e+04 >=   2.713600000e+04   5.4% (16536; 268975)
+4443705: mip =   2.867200000e+04 >=   2.713600000e+04   5.4% (16568; 269717)
+4455221: mip =   2.867200000e+04 >=   2.713600000e+04   5.4% (16607; 270454)
+4465822: mip =   2.867200000e+04 >=   2.713600000e+04   5.4% (16620; 271223)
+4477755: mip =   2.867200000e+04 >=   2.713600000e+04   5.4% (16652; 271860)
+4488955: mip =   2.867200000e+04 >=   2.713600000e+04   5.4% (16677; 272561)
+4499444: mip =   2.867200000e+04 >=   2.713600000e+04   5.4% (16709; 273305)
+4509562: mip =   2.867200000e+04 >=   2.713600000e+04   5.4% (16721; 274121)
+4521015: mip =   2.867200000e+04 >=   2.713600000e+04   5.4% (16739; 274791)
Time used: 1620.1 secs.  Memory used: 189.9 Mb.
+4531426: mip =   2.867200000e+04 >=   2.713600000e+04   5.4% (16783; 275489)
+4542002: mip =   2.867200000e+04 >=   2.713600000e+04   5.4% (16819; 276194)
+4552480: mip =   2.867200000e+04 >=   2.713600000e+04   5.4% (16850; 276905)
+4563067: mip =   2.867200000e+04 >=   2.713600000e+04   5.4% (16834; 277724)
+4574508: mip =   2.867200000e+04 >=   2.713600000e+04   5.4% (16894; 278373)
+4586101: mip =   2.867200000e+04 >=   2.713600000e+04   5.4% (16947; 279037)
+4596618: mip =   2.867200000e+04 >=   2.713600000e+04   5.4% (16996; 279736)
+4606864: mip =   2.867200000e+04 >=   2.713600000e+04   5.4% (17032; 280438)
+4617887: mip =   2.867200000e+04 >=   2.713600000e+04   5.4% (17056; 281175)
+4627718: mip =   2.867200000e+04 >=   2.713600000e+04   5.4% (17081; 281940)
+4638121: mip =   2.867200000e+04 >=   2.713600000e+04   5.4% (17143; 282603)
+4650640: mip =   2.867200000e+04 >=   2.713600000e+04   5.4% (17205; 283183)
Time used: 1680.1 secs.  Memory used: 195.4 Mb.
+4661390: mip =   2.867200000e+04 >=   2.713600000e+04   5.4% (17261; 283851)
+4671614: mip =   2.867200000e+04 >=   2.713600000e+04   5.4% (17289; 284543)
+4683102: mip =   2.867200000e+04 >=   2.713600000e+04   5.4% (17378; 285150)
+4694266: mip =   2.867200000e+04 >=   2.713600000e+04   5.4% (17411; 285824)
+4704700: mip =   2.867200000e+04 >=   2.713600000e+04   5.4% (17422; 286532)
+4714692: mip =   2.867200000e+04 >=   2.713600000e+04   5.4% (17451; 287283)
+4724483: mip =   2.867200000e+04 >=   2.713600000e+04   5.4% (17447; 288097)
+4734620: mip =   2.867200000e+04 >=   2.713600000e+04   5.4% (17479; 288814)
+4746523: mip =   2.867200000e+04 >=   2.713600000e+04   5.4% (17581; 289410)
+4757481: mip =   2.867200000e+04 >=   2.713600000e+04   5.4% (17593; 290120)
+4767695: mip =   2.867200000e+04 >=   2.713600000e+04   5.4% (17632; 290803)
+4777804: mip =   2.867200000e+04 >=   2.713600000e+04   5.4% (17646; 291469)
Time used: 1740.1 secs.  Memory used: 200.8 Mb.
+4787611: mip =   2.867200000e+04 >=   2.713600000e+04   5.4% (17669; 292127)
+4797344: mip =   2.867200000e+04 >=   2.713600000e+04   5.4% (17680; 292828)
+4807484: mip =   2.867200000e+04 >=   2.713600000e+04   5.4% (17706; 293567)
+4817222: mip =   2.867200000e+04 >=   2.713600000e+04   5.4% (17746; 294245)
+4825409: mip =   2.867200000e+04 >=   2.713600000e+04   5.4% (17757; 294995)
+4837735: mip =   2.867200000e+04 >=   2.713600000e+04   5.4% (17823; 295536)
+4849818: mip =   2.867200000e+04 >=   2.713600000e+04   5.4% (17906; 296108)
+4860582: mip =   2.867200000e+04 >=   2.713600000e+04   5.4% (17969; 296722)
+4869939: mip =   2.867200000e+04 >=   2.713600000e+04   5.4% (18014; 297401)
+4878855: mip =   2.867200000e+04 >=   2.713600000e+04   5.4% (18007; 298147)
+4888083: mip =   2.867200000e+04 >=   2.713600000e+04   5.4% (18027; 298844)
+4898428: mip =   2.867200000e+04 >=   2.713600000e+04   5.4% (18097; 299434)
